5 5
6 5 1 8 2 9 4 14 5 10 3 20 5 4 17 3 18 2 11 5 7 1 18 3 2 19 3 15 5 16 4 3 10 5 19 4 16 1 5 3 2 2 3 3 4 2 1 3 18
8 4 4 10 1 18 3 12 5 5 2 1 8 5 5 5 4 20 3 7 2 6 1 6 5 3 4 5 7 3 18 1 2 4 4 2 4 5 5 9 4 1 14 4 9 2 16 5 15 2 5 7 1 15 3 3 17 5 17 2 10
8 1 3 20 3 2 7 5 5 4 8 1 3 12 1 3 11 1 2 6 1 5 5 1 1 20 4 1 16 3 6 2 12 4 2
8 2 3 17 1 11 5 2 5 5 5 4 19 3 9 1 19 2 4 13 1 8 2 1 11 2 7 3 4 3 3 6 2 13 4 3 12 4 16 2 17 5 13 4 3 20 2 18 5 19 1 8 2 2 19 3 13
6 1 4 19 2 3 16 4 3 2 5 4 2 17 5 3 20 4 11 2 16 5 15 1 17 2 1 17 5 19 3 4 8 2 18 5 7